14 965
529 7 485 7 272 7 90 9 798 11 593 18
529 7 485 7 272 7 90 9 798 11 593 18
529 7 485 7 272 7 90 9 798 11 593 18
528 7 482 7 301 7 114 9 881 11 697 15 580 22
525 7 482 7 365 7 115 9 943 13
525 7 482 7 365 7 115 9 943 13
525 7 482 7 365 7 115 9 943 13
525 7 482 7 365 7 115 9 943 13
525 7 479 7 356 7 109 9 864 11 699 15 557 22
525 7 479 7 356 7 109 9 864 11 699 15 557 22
525 7 476 7 354 7 155 9 5 11 838 15 650 20 567 28
525 7 482 7 394 7 212 9 29 11 822 15 623 21
520 7 441 7 261 7 60 9 922 11 761 18
535 8 495 8 401 9 236 10 73 14 906 18 803 22
